outputs/case_304.model.txt
external_review_report_fair_and_true = False
actuarial_staff_hired = False
signing_actuarial_staff_assigned = False
signing_actuarial_report_fair_and_true = False
signing_actuarial_staff_assigned_board_approved = False
external_review_actuarial_staff_hired_board_approved = False
external_review_actuarial_staff_hired = False
act_171_1_violation_act_148_2_1 = False
act_148_3_internal_control_established = True
act_171_1_violation_act_148_3_1 = False
violate_act_144_5 = False
act_171_violation_act_144_5 = False
internal_handling_system_established = True
act_171_violation_act_144_1_to_4 = False
internal_control_and_audit_system_established = True
violate_act_148_2_1 = False
violate_act_148_3_1_or_2 = False
violate_act_144_1_to_4 = False
act_144_actuarial_staff_assigned = False
act_144_board_approval_obtained = False
violate_act_148_2_2 = False
act_144_reports_fair_and_true = False
act_171_1_violation_act_148_2_2 = False
act_148_3_internal_handling_established = True
penalty = False
act_171_1_violation_act_148_3_1_or_2 = False
act_171_1_violation_act_148_3_2 = False
act_144_external_review_engaged = False